AES/1_2_8/ssaes_r1-20_c2_rw1_e8_f0_k1-20_aes_min_box_aes_mc_bidirectional/ExperimentMinisat_r12_k16cnf_2011-11-10-180420/Result
WARNING: for repeatability, setting FPU to use double precision
============================[ Problem Statistics ]=============================
|                                                                             |
|  Number of variables:          1008                                         |
|  Number of clauses:           12952                                         |
|  Parse time:                   0.01 s                                       |
|  Eliminated clauses:           0.01 Mb                                      |
|  Simplification time:          0.04 s                                       |
|                                                                             |
=============================[ Search Statistics ]==============================
| Conflicts  |          ORIGINAL         |          LEARNT          | Progress |
|            |    Vars  Clauses Literals |    Limit  Clauses Lit/Cl |          |
================================================================================
|        100 |     672    12088    74284 |     4432      100     12 | 12.699 % |
|        250 |     672    12088    74284 |     4875      250     14 | 12.699 % |
|        475 |     672    12088    74284 |     5363      475     14 | 12.699 % |
|        812 |     672    12088    74284 |     5899      812     14 | 12.699 % |
|       1318 |     672    12088    74284 |     6489     1318     14 | 12.699 % |
|       2077 |     672    12088    74284 |     7138     2077     14 | 12.699 % |
|       3216 |     672    12088    74284 |     7852     3216     15 | 12.699 % |
|       4924 |     672    12088    74284 |     8637     4924     15 | 12.699 % |
|       7486 |     672    12088    74284 |     9500     7486     15 | 12.699 % |
|      11330 |     672    12088    74284 |    10451     6515     14 | 12.699 % |
|      17096 |     672    12088    74284 |    11496     6904     15 | 12.699 % |
|      25745 |     672    12088    74284 |    12645     9691     14 | 12.699 % |
|      38719 |     672    12088    74284 |    13910     9842     14 | 12.699 % |
|      58180 |     672    12088    74284 |    15301     7908     14 | 12.699 % |
|      87372 |     672    12088    74284 |    16831    13895     15 | 12.699 % |
|     131161 |     672    12088    74284 |    18514    15058     14 | 12.699 % |
|     196845 |     672    12088    74284 |    20366    15193     15 | 12.699 % |
|     295371 |     672    12088    74284 |    22402    10686     14 | 12.699 % |
|     443160 |     672    12088    74284 |    24643    11347     14 | 12.699 % |
|     664843 |     672    12088    74284 |    27107    21121     14 | 12.699 % |
|     997368 |     672    12088    74284 |    29818    20329     16 | 12.699 % |
|    1496156 |     672    12088    74284 |    32799    16900     14 | 12.699 % |
|    2244338 |     672    12088    74284 |    36079    28778     17 | 12.699 % |
|    3366612 |     672    12088    74284 |    39687    28704     15 | 12.699 % |
|    5050023 |     672    12088    74284 |    43656    20561     16 | 12.699 % |
===============================================================================
restarts              : 11683
conflicts             : 7127939        (38073 /sec)
decisions             : 9848271        (0.00 % random) (52604 /sec)
propagations          : 155839994      (832405 /sec)
conflict literals     : 119589242      (6.79 % deleted)
Memory used           : 37.00 MB
CPU time              : 187.217 s

SATISFIABLE
